# Solution for model r10_t18_m3_3
# Finished Task: 18 / 18
# Makespan: 649.0, Total Distance: 257.0, Total Time: 4.0131
# R O S F
0 0 -1 8.0 8.0
1 1 10 0.0 0.0
2 2 25 0.0 0.0
3 3 13 0.0 0.0
4 4 11 0.0 0.0
5 5 14 0.0 0.0
6 6 20 1.0 1.0
7 7 15 0.0 0.0
8 8 18 39.0 39.0
9 9 23 4.0 4.0
10 1 -1 365.0 402.0
11 4 27 553.0 585.0
12 8 21 470.0 501.0
13 3 -1 106.0 139.0
14 5 22 271.0 303.0
15 7 17 335.0 365.0
16 8 12 430.0 463.0
17 7 -1 610.0 649.0
18 8 16 290.0 327.0
19 9 -1 349.0 382.0
20 6 24 225.0 254.0
21 8 -1 625.0 649.0
22 5 26 557.0 595.0
23 9 19 242.0 271.0
24 6 -1 272.0 302.0
25 2 -1 402.0 432.0
26 5 -1 608.0 641.0
27 4 -1 596.0 625.0
